
Gurobi 9.5.2 (mac64[arm]) logging started Fri Apr 28 13:30:45 2023

Set parameter LogFile to value "Java/output/pure_mip_2_machine/scenario_seed_3_nJob_30_machineCount_2/mip_increment_2/log.txt"
Gurobi Optimizer version 9.5.2 build v9.5.2rc0 (mac64[arm])
Thread count: 8 physical cores, 8 logical processors, using up to 8 threads
Optimize a model with 830 rows, 9512 columns and 66768 nonzeros
Model fingerprint: 0x28782551
Variable types: 0 continuous, 9512 integer (9512 binary)
Coefficient statistics:
  Matrix range     [1e+00, 1e+02]
  Objective range  [1e+00, 2e+06]
  Bounds range     [1e+00, 1e+00]
  RHS range        [1e+00, 1e+00]
Presolve removed 59 rows and 1833 columns
Presolve time: 0.08s
Presolved: 771 rows, 7679 columns, 53536 nonzeros
Variable types: 0 continuous, 7679 integer (7673 binary)

Root relaxation: objective 1.821799e+05, 7198 iterations, 0.32 seconds (0.59 work units)

    Nodes    |    Current Node    |     Objective Bounds      |     Work
 Expl Unexpl |  Obj  Depth IntInf | Incumbent    BestBd   Gap | It/Node Time

     0     0 182179.940    0  244          - 182179.940      -     -    0s
H    0     0                    1872969.0000 193443.683  89.7%     -    0s
     0     0 193443.683    0  315 1872969.00 193443.683  89.7%     -    0s
H    0     0                    1720427.0000 193443.683  88.8%     -    0s
H    0     0                    1591569.0000 193443.683  87.8%     -    0s
     0     0 193443.683    0  313 1591569.00 193443.683  87.8%     -    0s
H    0     0                    1188833.0000 200062.731  83.2%     -    1s
H    0     0                    1185410.0000 200062.731  83.1%     -    1s
     0     0 200062.731    0  324 1185410.00 200062.731  83.1%     -    1s
H    0     0                    1034090.0000 200062.731  80.7%     -    1s
     0     0 201784.242    0  316 1034090.00 201784.242  80.5%     -    1s
     0     0 201785.004    0  329 1034090.00 201785.004  80.5%     -    1s
     0     0 210927.780    0  383 1034090.00 210927.780  79.6%     -    1s
H    0     0                    997458.00000 210927.780  78.9%     -    1s
     0     0 211899.739    0  386 997458.000 211899.739  78.8%     -    2s
     0     0 211900.030    0  383 997458.000 211900.030  78.8%     -    2s
     0     0 220028.811    0  387 997458.000 220028.811  77.9%     -    2s
H    0     0                    734308.00000 220028.811  70.0%     -    2s
     0     0 220615.401    0  374 734308.000 220615.401  70.0%     -    2s
H    0     0                    526761.00000 220615.976  58.1%     -    2s
     0     0 220615.976    0  372 526761.000 220615.976  58.1%     -    2s
     0     0 224118.694    0  399 526761.000 224118.694  57.5%     -    3s
H    0     0                    440073.00000 224118.694  49.1%     -    3s
     0     0 225484.209    0  414 440073.000 225484.209  48.8%     -    3s
     0     0 225557.434    0  404 440073.000 225557.434  48.7%     -    3s
     0     0 225578.046    0  397 440073.000 225578.046  48.7%     -    3s
     0     0 230386.502    0  424 440073.000 230386.502  47.6%     -    4s
H    0     0                    365319.00000 230809.676  36.8%     -    4s
     0     0 230809.676    0  404 365319.000 230809.676  36.8%     -    4s
     0     0 230999.869    0  394 365319.000 230999.869  36.8%     -    4s
     0     0 231028.740    0  405 365319.000 231028.740  36.8%     -    4s
     0     0 235012.731    0  420 365319.000 235012.731  35.7%     -    4s
H    0     0                    356983.00000 235012.731  34.2%     -    4s
H    0     0                    335811.00000 235012.731  30.0%     -    4s
     0     0 236070.016    0  438 335811.000 236070.016  29.7%     -    4s
     0     0 236148.994    0  435 335811.000 236148.994  29.7%     -    4s
     0     0 236203.870    0  442 335811.000 236203.870  29.7%     -    5s
     0     0 236204.086    0  445 335811.000 236204.086  29.7%     -    5s
     0     0 240647.475    0  424 335811.000 240647.475  28.3%     -    5s
H    0     0                    335600.00000 240647.475  28.3%     -    5s
H    0     0                    322972.00000 240647.475  25.5%     -    5s
     0     0 241061.855    0  426 322972.000 241061.855  25.4%     -    5s
     0     0 241116.042    0  431 322972.000 241116.042  25.3%     -    5s
     0     0 241138.354    0  426 322972.000 241138.354  25.3%     -    5s
     0     0 243862.927    0  439 322972.000 243862.927  24.5%     -    6s
     0     0 246105.003    0  427 322972.000 246105.003  23.8%     -    6s
     0     0 246787.259    0  439 322972.000 246787.259  23.6%     -    6s
     0     0 246864.683    0  429 322972.000 246864.683  23.6%     -    6s
     0     0 246885.299    0  423 322972.000 246885.299  23.6%     -    6s
     0     0 247955.673    0  447 322972.000 247955.673  23.2%     -    7s
     0     0 248478.239    0  438 322972.000 248478.239  23.1%     -    7s
     0     0 248547.839    0  458 322972.000 248547.839  23.0%     -    7s
     0     0 248570.786    0  460 322972.000 248570.786  23.0%     -    7s
     0     0 250302.271    0  420 322972.000 250302.271  22.5%     -    8s
     0     0 250559.072    0  442 322972.000 250559.072  22.4%     -    8s
     0     0 250652.058    0  447 322972.000 250652.058  22.4%     -    8s
     0     0 250660.788    0  444 322972.000 250660.788  22.4%     -    8s
     0     0 251815.751    0  447 322972.000 251815.751  22.0%     -    8s
     0     0 252469.069    0  449 322972.000 252469.069  21.8%     -    9s
     0     0 252474.011    0  449 322972.000 252474.011  21.8%     -    9s
H    0     0                    310161.00000 252906.261  18.5%     -    9s
     0     0 252921.538    0  437 310161.000 252921.538  18.5%     -    9s
H    0     0                    284596.00000 252921.538  11.1%     -    9s
     0     0 253284.935    0  439 284596.000 253284.935  11.0%     -    9s
     0     0 253324.974    0  443 284596.000 253324.974  11.0%     -    9s
     0     0 253715.371    0  419 284596.000 253715.371  10.9%     -   10s
     0     0 253715.371    0  265 284596.000 253715.371  10.9%     -   10s
     0     0 253715.371    0  373 284596.000 253715.371  10.9%     -   11s
H    0     0                    284034.00000 253715.371  10.7%     -   11s
     0     0 253715.371    0  386 284034.000 253715.371  10.7%     -   11s
     0     0 253715.371    0  399 284034.000 253715.371  10.7%     -   11s
     0     0 255374.652    0  412 284034.000 255374.652  10.1%     -   12s
     0     0 255459.213    0  406 284034.000 255459.213  10.1%     -   12s
     0     0 255488.548    0  412 284034.000 255488.548  10.1%     -   12s
     0     0 255493.558    0  415 284034.000 255493.558  10.0%     -   12s
     0     0 255711.053    0  446 284034.000 255711.053  10.0%     -   12s
     0     0 255736.672    0  421 284034.000 255736.672  10.0%     -   12s
     0     0 257203.060    0  469 284034.000 257203.060  9.45%     -   12s
     0     0 258107.455    0  449 284034.000 258107.455  9.13%     -   12s
     0     0 258208.710    0  453 284034.000 258208.710  9.09%     -   12s
     0     0 258262.901    0  434 284034.000 258262.901  9.07%     -   12s
     0     0 258729.487    0  388 284034.000 258729.487  8.91%     -   13s
     0     0 259342.805    0  453 284034.000 259342.805  8.69%     -   13s
     0     0 259353.609    0  448 284034.000 259353.609  8.69%     -   13s
     0     0 259531.923    0  442 284034.000 259531.923  8.63%     -   13s
     0     0 259566.225    0  453 284034.000 259566.225  8.61%     -   13s
     0     0 259681.387    0  477 284034.000 259681.387  8.57%     -   13s
     0     0 259681.387    0  445 284034.000 259681.387  8.57%     -   13s
H    0     0                    284008.00000 259718.183  8.55%     -   14s
     0     2 259718.183    0  437 284008.000 259718.183  8.55%     -   14s
H   31    40                    264260.00000 260059.000  1.59%   604   15s
H   35    40                    260084.00000 260059.000  0.01%   677   15s

Cutting planes:
  Cover: 10
  Clique: 64
  MIR: 120
  StrongCG: 42
  GUB cover: 133
  Zero half: 18
  RLT: 18

Explored 39 nodes (154349 simplex iterations) in 15.36 seconds (29.70 work units)
Thread count was 8 (of 8 available processors)

Solution count 10: 260084 264260 284008 ... 356983

Optimal solution found (tolerance 1.00e-04)
Best objective 2.600840000000e+05, best bound 2.600590000000e+05, gap 0.0096%
